(set-option :produce-models true)
(declare-fun pir_greaterthan1 (int) bool)
(declare-fun pir_greaterthan0 (int) bool)
(declare-fun pir_add1 (int) int)
(declare-fun pir___result () int)
(declare-fun pir_x () int)
(assert (= pir___result (+ pir_x 1)))
(assert (< 0 pir___result))
(assert (not (< 0 pir_x )))
(check-sat)